c Reduced graph for GEOM90_0 generated by Cyril Grelier
p edge 82 392
e 1 2
e 1 15
e 1 27
e 1 31
e 1 34
e 1 47
e 1 48
e 1 61
e 1 62
e 1 71
e 1 75
e 1 76
e 1 80
e 2 29
e 2 31
e 2 34
e 2 40
e 2 47
e 2 48
e 2 61
e 2 62
e 2 65
e 2 75
e 2 76
e 3 6
e 3 17
e 3 25
e 3 35
e 3 43
e 3 45
e 3 77
e 3 78
e 3 79
e 3 82
e 4 5
e 4 30
e 4 33
e 4 51
e 4 55
e 4 56
e 4 57
e 4 64
e 4 70
e 5 19
e 5 33
e 5 51
e 5 55
e 5 56
e 5 57
e 5 64
e 5 70
e 6 35
e 6 43
e 6 59
e 6 77
e 6 78
e 6 79
e 6 82
e 7 8
e 7 44
e 7 46
e 7 60
e 7 63
e 7 74
e 7 81
e 8 44
e 8 46
e 8 60
e 8 63
e 8 74
e 8 81
e 9 10
e 9 11
e 9 28
e 9 53
e 9 58
e 9 72
e 9 73
e 10 19
e 10 28
e 10 57
e 10 58
e 10 72
e 11 28
e 11 53
e 11 58
e 11 72
e 11 73
e 12 18
e 12 19
e 12 36
e 12 38
e 12 53
e 12 57
e 13 14
e 13 22
e 13 43
e 13 78
e 13 79
e 14 22
e 14 43
e 14 78
e 14 79
e 15 27
e 15 31
e 15 32
e 15 41
e 15 42
e 15 54
e 15 60
e 15 62
e 15 67
e 15 68
e 15 71
e 15 80
e 16 23
e 16 24
e 16 26
e 16 30
e 16 39
e 16 40
e 16 49
e 16 51
e 16 52
e 16 66
e 16 69
e 16 75
e 17 18
e 17 25
e 17 35
e 17 36
e 17 42
e 17 54
e 17 68
e 17 77
e 17 82
e 18 36
e 18 38
e 18 53
e 18 59
e 18 73
e 18 77
e 19 28
e 19 57
e 19 72
e 20 41
e 20 42
e 20 45
e 20 50
e 20 63
e 20 81
e 21 23
e 21 26
e 21 49
e 21 52
e 21 66
e 22 43
e 22 78
e 22 79
e 23 24
e 23 26
e 23 30
e 23 39
e 23 40
e 23 49
e 23 52
e 23 65
e 23 66
e 23 69
e 23 75
e 24 26
e 24 30
e 24 39
e 24 40
e 24 47
e 24 49
e 24 51
e 24 52
e 24 61
e 24 75
e 25 35
e 25 41
e 25 42
e 25 45
e 25 50
e 25 54
e 25 68
e 25 82
e 26 29
e 26 40
e 26 49
e 26 52
e 26 65
e 26 66
e 27 31
e 27 47
e 27 61
e 27 67
e 27 71
e 27 75
e 27 80
e 28 53
e 28 58
e 28 72
e 29 34
e 29 40
e 29 47
e 29 65
e 29 76
e 30 33
e 30 39
e 30 40
e 30 49
e 30 51
e 30 55
e 30 56
e 30 64
e 30 69
e 30 70
e 30 75
e 31 32
e 31 34
e 31 47
e 31 48
e 31 61
e 31 62
e 31 67
e 31 71
e 31 76
e 31 80
e 32 37
e 32 41
e 32 42
e 32 48
e 32 50
e 32 54
e 32 60
e 32 62
e 32 67
e 32 68
e 32 71
e 32 81
e 33 39
e 33 51
e 33 55
e 33 56
e 33 57
e 33 64
e 33 70
e 34 47
e 34 48
e 34 61
e 34 65
e 34 76
e 35 43
e 35 77
e 35 78
e 35 79
e 35 82
e 36 38
e 36 53
e 36 59
e 36 77
e 37 44
e 37 48
e 37 60
e 37 62
e 37 81
e 38 53
e 38 57
e 39 40
e 39 49
e 39 51
e 39 52
e 39 55
e 39 56
e 39 64
e 39 69
e 39 70
e 39 75
e 40 47
e 40 49
e 40 52
e 40 61
e 40 65
e 40 75
e 40 76
e 41 42
e 41 45
e 41 50
e 41 54
e 41 60
e 41 63
e 41 67
e 41 68
e 41 81
e 42 45
e 42 50
e 42 54
e 42 63
e 42 67
e 42 68
e 43 77
e 43 78
e 43 79
e 43 82
e 44 46
e 44 48
e 44 60
e 44 62
e 44 74
e 44 81
e 45 50
e 45 63
e 45 68
e 46 74
e 47 48
e 47 61
e 47 65
e 47 75
e 47 76
e 48 60
e 48 61
e 48 62
e 48 67
e 48 76
e 49 52
e 49 66
e 49 69
e 49 75
e 50 54
e 50 60
e 50 63
e 50 67
e 50 68
e 50 81
e 51 55
e 51 56
e 51 64
e 51 69
e 51 70
e 52 65
e 52 66
e 52 69
e 53 58
e 53 59
e 53 72
e 53 73
e 54 67
e 54 68
e 54 71
e 55 56
e 55 64
e 55 69
e 55 70
e 56 64
e 56 69
e 56 70
e 57 70
e 58 72
e 59 73
e 59 77
e 60 62
e 60 63
e 60 67
e 60 68
e 60 81
e 61 71
e 61 75
e 61 76
e 61 80
e 62 67
e 62 71
e 62 81
e 63 68
e 63 81
e 64 70
e 65 76
e 66 69
e 67 68
e 67 71
e 67 81
e 71 80
e 72 73
e 74 81
e 75 76
e 75 80
e 77 78
e 77 82
e 78 79
e 78 82
e 79 82
